2929985
83,74,221,201,173,110,123,11,42,131,23,148,65,126,75,78,130,94,107,102,210,203,197,6,104,46,141,202,219,212,149,41,24,106,190,128,222,18,92,54,175,99,12,187,134,167,125,45,168,154,113,140,162,7,39,116,8,189,84,159,43,157,49,147,132,124,206,218,58,61,73,204,199,14,177,227,79,208,48,165,200,198,213,51,178,119,114,1,118,71,135,36,108,96,179,145,205,87,28,196,26,120,77,105,121,180,216,100,53,56,66,158,163,67,101,220,172,209,25,69,191,10,229,133,112,155,169,40,181,5,139,176,15,185,29,137,166,192,184,34,103,82,152,85,68,37,27,35,63,127,16,31,44,64,156,22,183,143,122,95,160,32,207,21,109,228,90,142,88,150,171,186,170,33,117,20,55,161,9,81,215,151,214,174,223,62,3,70,80,97,50,76,164,59,86,72,60,52,98,17,129,230,182,226,217,4,115,225,194,144,19,138,47,13,91,224,57,30,193,136,195,93,2,188,211,146,153,38,111,89